c FILE: I17.clq
c
c SOURCE: Generated by Breno Maurício de Freitas Viana
c         writed
c
c           Graph Stats
c number of vertices  : 37
c number of edges     : 36
p col 37 36
e 1 2
e 1 3
e 2 4
e 2 5
e 3 6
e 3 7
e 4 8
e 4 9
e 4 10
e 5 11
e 5 12
e 5 13
e 6 14
e 6 15
e 7 16
e 7 17
e 7 18
e 7 19
e 8 20
e 8 21
e 9 22
e 9 23
e 10 24
e 10 25
e 11 26
e 12 27
e 13 28
e 14 29
e 15 30
e 16 31
e 17 32
e 17 33
e 18 34
e 18 35
e 19 36
e 19 37